c description: Random 3-CNF over 19 variables and 81 clauses
c generator: CNFgen (0.9.2)
c copyright: (C) 2012-2022 Massimo Lauria <massimo.lauria@uniroma1.it>
c url: https://massimolauria.net/cnfgen
c command line: cnfgen --output CNF_4.28/19_bit_81_612.cnf randkcnf 3 19 81
c
p cnf 19 81
-1 -2 4 0
-9 -13 -16 0
-4 -15 19 0
1 4 19 0
1 15 -17 0
-2 -13 18 0
-12 -15 16 0
-4 5 8 0
14 16 19 0
4 -16 17 0
1 17 19 0
9 15 18 0
4 -6 14 0
-8 -9 -17 0
8 11 15 0
2 -6 12 0
-6 14 17 0
-3 4 9 0
-8 -14 -16 0
8 10 -11 0
9 11 12 0
2 -7 16 0
-4 7 19 0
-7 -8 -12 0
3 -5 17 0
2 9 19 0
-6 15 -19 0
-4 6 19 0
-6 -8 18 0
-1 5 -8 0
-4 -9 16 0
5 14 -16 0
2 16 18 0
1 -7 12 0
1 -2 -15 0
-2 12 -15 0
11 -12 14 0
-5 13 14 0
7 8 11 0
2 4 -16 0
-1 -2 -9 0
9 14 17 0
-5 -6 16 0
1 9 -16 0
1 12 -19 0
-7 -11 -16 0
2 5 13 0
14 -18 -19 0
-12 15 -18 0
-2 -11 13 0
7 -8 18 0
-1 -4 -9 0
-7 -13 14 0
-8 10 -13 0
-4 -10 -12 0
-2 3 16 0
1 7 -19 0
6 8 13 0
4 -11 12 0
-13 -15 -17 0
-1 10 13 0
-2 -6 13 0
-5 6 14 0
1 -2 14 0
-7 -8 -9 0
2 13 -17 0
1 -6 8 0
5 -14 -19 0
-8 13 -18 0
-2 -9 19 0
8 -9 -12 0
9 -10 16 0
-12 -14 -15 0
-6 -14 -16 0
6 -9 -18 0
3 5 9 0
-8 12 -17 0
5 7 9 0
2 13 19 0
-4 9 -13 0
10 -12 -14 0
